c User generated cnf file
p cnf 10 28
5 8 -1 0 
10 -6 1 0 
9 -3 1 0 
4 6 -1 0 
3 -2 5 0 
6 2 -10 0 
5 -6 6 0 
8 4 -4 0 
10 -1 3 0 
5 6 -2 0 
10 -2 8 0 
9 3 -2 0 
3 9 -8 0 
9 -7 1 0 
1 -7 3 0 
3 1 -2 0 
4 -9 8 0 
1 -7 8 0 
3 1 -6 0 
9 9 -5 0 
3 -10 9 0 
6 10 -3 0 
9 10 -3 0 
6 -5 1 0 
6 -9 9 0 
4 1 -5 0 
10 7 -6 0 
1 3 -7 0 
